<number of tasks>
28

<cycle time>
216

<task times>
1 70
2 59
3 33
4 6
5 1
6 27
7 17
8 62
9 31
10 53
11 21
12 19
13 108
14 52
15 5
16 8
17 97
18 8
19 47
20 67
21 17
22 8
23 3
24 21
25 107
26 3
27 2
28 72

<precedence relations>
1,2
1,3
1,4
1,5
1,8
1,19
1,21
1,22
1,23
1,24
1,26
2,6
2,17
3,28
4,28
5,28
6,7
7,18
8,9
9,10
10,11
10,12
11,15
12,13
13,14
13,16
14,28
15,28
16,28
17,28
18,28
19,20
20,28
21,28
22,28
23,28
24,25
25,28
26,27
27,28

<setup times forward>
1,3:3
1,4:4
1,19:11
1,21:4
1,22:4
1,23:3
2,3:3
2,4:4
2,6:11
2,9:11
2,10:11
2,11:11
2,12:11
2,13:4
2,14:4
2,15:4
2,16:4
2,17:4
2,19:11
2,20:4
2,21:4
2,22:4
2,23:3
2,25:3
2,27:4
3,2:3
3,4:1
3,5:3
3,6:8
3,7:8
3,8:3
3,9:8
3,10:8
3,11:8
3,12:8
3,13:7
3,14:1
3,15:1
3,16:1
3,17:7
3,18:1
3,19:8
3,20:1
3,21:1
3,22:7
3,24:3
3,26:3
3,27:7
4,2:4
4,3:1
4,5:4
4,6:7
4,7:7
4,8:4
4,9:7
4,10:7
4,11:7
4,12:7
4,13:8
4,17:8
4,19:7
4,22:8
4,23:1
4,24:4
4,25:1
4,26:4
4,27:8
4,28:1
5,3:3
5,4:4
5,6:11
5,7:11
5,9:11
5,10:11
5,11:11
5,12:11
5,13:4
5,14:4
5,15:4
5,16:4
5,17:4
5,18:4
5,19:11
5,20:4
5,21:4
5,22:4
5,23:3
5,25:3
5,27:4
5,28:3
6,3:8
6,4:7
6,5:11
6,8:11
6,13:15
6,14:7
6,15:7
6,16:7
6,17:15
6,20:7
6,21:7
6,22:15
6,23:8
6,24:11
6,25:8
6,26:11
6,27:15
7,3:8
7,4:7
7,5:11
7,8:11
7,13:15
7,14:7
7,15:7
7,16:7
7,17:15
7,18:7
7,20:7
7,21:7
7,22:15
7,23:8
7,24:11
7,25:8
7,26:11
7,27:15
8,3:3
8,4:4
8,6:11
8,7:11
8,9:11
8,17:4
8,18:4
8,19:11
8,20:4
8,21:4
8,22:4
8,23:3
8,25:3
8,27:4
9,2:11
9,3:8
9,4:7
9,5:11
9,17:15
9,18:7
9,20:7
9,21:7
9,22:15
9,23:8
9,24:11
9,25:8
9,26:11
9,27:15
10,2:11
10,3:8
10,4:7
10,5:11
10,17:15
10,18:7
10,20:7
10,21:7
10,22:15
10,23:8
10,24:11
10,25:8
10,26:11
10,27:15
11,2:11
11,3:8
11,4:7
11,5:11
11,13:15
11,14:7
11,15:7
11,16:7
11,17:15
11,18:7
11,20:7
11,21:7
11,22:15
11,23:8
11,24:11
11,25:8
11,26:11
11,27:15
12,2:11
12,3:8
12,4:7
12,5:11
12,13:15
12,15:7
12,17:15
12,18:7
12,20:7
12,21:7
12,22:15
12,23:8
12,24:11
12,25:8
12,26:11
12,27:15
13,2:4
13,3:7
13,4:8
13,5:4
13,6:15
13,7:15
13,11:15
13,14:8
13,15:8
13,16:8
13,18:8
13,19:15
13,20:8
13,21:8
13,23:7
13,24:4
13,25:7
13,26:4
14,2:4
14,3:1
14,5:4
14,6:7
14,7:7
14,11:7
14,17:8
14,19:7
14,22:8
14,23:1
14,24:4
14,25:1
14,26:4
14,27:8
14,28:1
15,2:4
15,3:1
15,5:4
15,6:7
15,7:7
15,12:7
15,13:8
15,17:8
15,19:7
15,22:8
15,23:1
15,24:4
15,25:1
15,26:4
15,27:8
15,28:1
16,2:4
16,3:1
16,5:4
16,6:7
16,7:7
16,11:7
16,17:8
16,19:7
16,22:8
16,23:1
16,24:4
16,25:1
16,26:4
16,27:8
16,28:1
17,3:7
17,4:8
17,5:4
17,6:15
17,7:15
17,8:4
17,9:15
17,10:15
17,11:15
17,12:15
17,14:8
17,15:8
17,16:8
17,18:8
17,19:15
17,20:8
17,21:8
17,23:7
17,24:4
17,25:7
17,26:4
17,28:7
18,3:1
18,5:4
18,8:4
18,9:7
18,10:7
18,11:7
18,12:7
18,13:8
18,17:8
18,19:7
18,22:8
18,23:1
18,24:4
18,25:1
18,26:4
18,27:8
18,28:1
19,2:11
19,3:8
19,4:7
19,5:11
19,8:11
19,13:15
19,14:7
19,15:7
19,16:7
19,17:15
19,18:7
19,20:7
19,21:7
19,22:15
19,23:8
19,24:11
19,25:8
19,26:11
19,27:15
20,2:4
20,3:1
20,5:4
20,6:7
20,7:7
20,8:4
20,9:7
20,10:7
20,11:7
20,12:7
20,13:8
20,17:8
20,22:8
20,23:1
20,24:4
20,25:1
20,26:4
20,27:8
20,28:1
21,2:4
21,3:1
21,5:4
21,6:7
21,7:7
21,8:4
21,9:7
21,10:7
21,11:7
21,12:7
21,13:8
21,17:8
21,19:7
21,22:8
21,23:1
21,24:4
21,25:1
21,26:4
21,27:8
21,28:1
22,2:4
22,3:7
22,4:8
22,5:4
22,6:15
22,7:15
22,8:4
22,9:15
22,10:15
22,11:15
22,12:15
22,14:8
22,15:8
22,16:8
22,18:8
22,19:15
22,20:8
22,21:8
22,23:7
22,24:4
22,25:7
22,26:4
22,28:7
23,2:3
23,4:1
23,5:3
23,6:8
23,7:8
23,8:3
23,9:8
23,10:8
23,11:8
23,12:8
23,13:7
23,14:1
23,15:1
23,16:1
23,17:7
23,18:1
23,19:8
23,20:1
23,21:1
23,22:7
23,24:3
23,26:3
23,27:7
24,3:3
24,4:4
24,6:11
24,7:11
24,9:11
24,10:11
24,11:11
24,12:11
24,13:4
24,14:4
24,15:4
24,16:4
24,17:4
24,18:4
24,19:11
24,20:4
24,21:4
24,22:4
24,23:3
24,25:3
24,27:4
25,2:3
25,4:1
25,5:3
25,6:8
25,7:8
25,8:3
25,9:8
25,10:8
25,11:8
25,12:8
25,13:7
25,14:1
25,15:1
25,16:1
25,17:7
25,18:1
25,19:8
25,20:1
25,21:1
25,22:7
25,26:3
25,27:7
26,3:3
26,4:4
26,6:11
26,7:11
26,9:11
26,10:11
26,11:11
26,12:11
26,13:4
26,14:4
26,15:4
26,16:4
26,17:4
26,18:4
26,19:11
26,20:4
26,21:4
26,22:4
26,23:3
26,25:3
26,27:4
27,2:4
27,3:7
27,4:8
27,5:4
27,6:15
27,7:15
27,8:4
27,9:15
27,10:15
27,11:15
27,12:15
27,14:8
27,15:8
27,16:8
27,18:8
27,19:15
27,20:8
27,21:8
27,23:7
27,24:4
27,25:7
27,28:7

<setup times backward>
2,13:4
2,22:4
2,27:4
3,1:3
3,2:3
3,5:3
3,8:3
3,13:7
3,17:7
3,22:7
3,24:3
3,26:3
3,27:7
4,1:4
4,2:4
4,3:1
4,5:4
4,8:4
4,13:8
4,17:8
4,22:8
4,23:1
4,24:4
4,25:1
4,26:4
4,27:8
5,13:4
5,17:4
5,22:4
5,27:4
6,1:11
6,2:11
6,3:8
6,4:7
6,5:11
6,8:11
6,13:15
6,14:7
6,15:7
6,16:7
6,17:15
6,20:7
6,21:7
6,22:15
6,23:8
6,24:11
6,25:8
6,26:11
6,27:15
7,1:11
7,2:11
7,3:8
7,4:7
7,5:11
7,8:11
7,13:15
7,14:7
7,15:7
7,16:7
7,17:15
7,20:7
7,21:7
7,22:15
7,23:8
7,24:11
7,25:8
7,26:11
7,27:15
8,17:4
8,22:4
8,27:4
9,1:11
9,2:11
9,3:8
9,4:7
9,5:11
9,8:11
9,17:15
9,18:7
9,20:7
9,21:7
9,22:15
9,23:8
9,24:11
9,25:8
9,26:11
9,27:15
10,1:11
10,2:11
10,3:8
10,4:7
10,5:11
10,8:11
10,17:15
10,18:7
10,20:7
10,21:7
10,22:15
10,23:8
10,24:11
10,25:8
10,26:11
10,27:15
11,1:11
11,2:11
11,3:8
11,4:7
11,5:11
11,8:11
11,13:15
11,14:7
11,16:7
11,17:15
11,18:7
11,20:7
11,21:7
11,22:15
11,23:8
11,24:11
11,25:8
11,26:11
11,27:15
12,1:11
12,2:11
12,3:8
12,4:7
12,5:11
12,8:11
12,15:7
12,17:15
12,18:7
12,20:7
12,21:7
12,22:15
12,23:8
12,24:11
12,25:8
12,26:11
12,27:15
14,1:4
14,2:4
14,3:1
14,5:4
14,8:4
14,13:8
14,17:8
14,22:8
14,23:1
14,24:4
14,25:1
14,26:4
14,27:8
15,1:4
15,2:4
15,3:1
15,5:4
15,8:4
15,13:8
15,17:8
15,22:8
15,23:1
15,24:4
15,25:1
15,26:4
15,27:8
16,1:4
16,2:4
16,3:1
16,5:4
16,8:4
16,13:8
16,17:8
16,22:8
16,23:1
16,24:4
16,25:1
16,26:4
16,27:8
18,1:4
18,2:4
18,3:1
18,5:4
18,8:4
18,13:8
18,17:8
18,22:8
18,23:1
18,24:4
18,25:1
18,26:4
18,27:8
19,1:11
19,2:11
19,3:8
19,4:7
19,5:11
19,8:11
19,13:15
19,14:7
19,15:7
19,16:7
19,17:15
19,18:7
19,21:7
19,22:15
19,23:8
19,24:11
19,25:8
19,26:11
19,27:15
20,1:4
20,2:4
20,3:1
20,5:4
20,8:4
20,13:8
20,17:8
20,22:8
20,23:1
20,24:4
20,25:1
20,26:4
20,27:8
21,1:4
21,2:4
21,3:1
21,5:4
21,8:4
21,13:8
21,17:8
21,22:8
21,23:1
21,24:4
21,25:1
21,26:4
21,27:8
23,1:3
23,2:3
23,5:3
23,8:3
23,13:7
23,17:7
23,22:7
23,24:3
23,26:3
23,27:7
24,13:4
24,17:4
24,22:4
24,27:4
25,1:3
25,2:3
25,5:3
25,8:3
25,13:7
25,17:7
25,22:7
25,24:3
25,26:3
25,27:7
26,13:4
26,17:4
26,22:4
28,1:3
28,2:3
28,5:3
28,8:3
28,13:7
28,17:7
28,22:7
28,24:3
28,26:3
28,27:7

<end>

<optimal SALBP-1 value>
5


<rand seed>
467321153

